c ren 1 -> 1
c ren 2 -> 2
c ren 3 -> 3
c ren 4 -> 4
c ren 5 -> 5
c ren 6 -> 6
c ren 7 -> 7
c ren 8 -> 8
c ren 9 -> 9
c ren 10 -> 10
c ren 11 -> 11
c ren 12 -> 12
c ren 13 -> 13
c ren 14 -> 14
c ren 15 -> 15
c ren 16 -> 16
c ren 17 -> 17
c ren 18 -> 18
c ren 19 -> 19
c ren 20 -> 20
c ren 21 -> 21
c ren 22 -> 22
c ren 23 -> 23
c ren 24 -> 24
c ren 25 -> 25
c ren 26 -> 26
c ren 27 -> 27
c ren 28 -> 28
c ren 29 -> 29
c ren 30 -> 30
c ren 31 -> 31
c ren 32 -> 32
c ren 33 -> 33
c ren 34 -> 34
c ren 35 -> 35
c ren 36 -> 36
c ren 37 -> 37
c ren 38 -> 38
c ren 39 -> 39
c ren 40 -> 40
c ren 41 -> 41
c ren 44 -> 42
c ren 60 -> 43
c ren 69 -> 44
c ren 78 -> 45
c ren 87 -> 46
c ren 88 -> 47
c ren 97 -> 48
c ren 100 -> 49
c ren 101 -> 50
c ren 102 -> 51
c ren 103 -> 52
c ren 115 -> 53
c ren 118 -> 54
c ren 134 -> 55
c ren 143 -> 56
c ren 152 -> 57
c ren 156 -> 58
c ren 172 -> 59
c ren 181 -> 60
c ren 191 -> 61
c ren 196 -> 62
c ren 212 -> 63
c ren 221 -> 64
c ren 230 -> 65
c ren 234 -> 66
c ren 250 -> 67
c ren 254 -> 68
c ren 270 -> 69
c ren 286 -> 70
c ren 305 -> 71
c ren 324 -> 72
c ren 343 -> 73
c ren 380 -> 74
c ren 399 -> 75
c ren 418 -> 76
c ren 437 -> 77
c ren 454 -> 78
c ren 455 -> 79
c ren 456 -> 80
c ren 457 -> 81
c ren 458 -> 82
c ren 459 -> 83
c ren 460 -> 84
c ren 461 -> 85
c ren 462 -> 86
c ren 463 -> 87
c ren 464 -> 88
c ren 465 -> 89
c ren 466 -> 90
c ren 467 -> 91
c ren 468 -> 92
c ren 469 -> 93
c ren 470 -> 94
c ren 471 -> 95
c ren 472 -> 96
c ren 473 -> 97
c ren 474 -> 98
c ren 475 -> 99
c ren 476 -> 100
c ren 477 -> 101
c ren 478 -> 102
c ren 479 -> 103
c ren 480 -> 104
c ren 481 -> 105
c ren 482 -> 106
c ren 483 -> 107
c ren 484 -> 108
c ren 485 -> 109
c ren 486 -> 110
c ren 487 -> 111
c ren 488 -> 112
c ren 489 -> 113
c ren 526 -> 114
c ren 602 -> 115
c ren 622 -> 116
c ren 641 -> 117
c ren 660 -> 118
c ren 679 -> 119
c ren 897 -> 120
c ren 898 -> 121
c ren 899 -> 122
c ren 900 -> 123
c ren 901 -> 124
c ren 902 -> 125
c ren 903 -> 126
c ren 904 -> 127
c ren 905 -> 128
c ren 906 -> 129
c ren 907 -> 130
c ren 908 -> 131
c ren 909 -> 132
c ren 910 -> 133
c ren 911 -> 134
c ren 915 -> 135
c ren 919 -> 136
c ren 923 -> 137
p cnf 137 1345
a 1 2 3 4 5 6 7 8 9 10 11 12 13 14 15 16 17 18 19 20 21 22 23 24 25 26 27 28 29 30 31 32 33 34 35 36 37 38 39 40 41 85 86 87 88 89 90 91 92 93 94 95 96 97 98 99 100 101 102 103 104 105 106 107 108 109 110 111 112 113 0
d 78 85 86 87 88 89 90 91 92 93 94 95 96 97 98 99 100 101 102 103 104 105 106 107 108 109 110 111 112 113 0
d 79 85 86 87 88 89 90 91 92 93 94 95 96 97 98 99 100 101 102 103 104 105 106 107 108 109 110 111 112 113 0
d 80 85 86 87 88 89 0
d 81 96 97 0
d 82 94 95 0
d 83 90 91 92 93 0
d 84 98 99 100 101 102 103 104 105 106 107 108 109 110 111 112 113 0
e 42 43 44 45 46 47 48 49 50 51 52 53 54 55 56 57 58 59 60 61 62 63 64 65 66 67 68 69 70 71 72 73 74 75 76 77 114 115 116 117 118 119 120 121 122 123 124 125 126 127 128 129 130 131 132 133 134 135 136 137 0
1 5 -42 0
1 -5 42 0
-1 5 42 0
-1 -5 -42 0
-9 -13 -33 -41 -42 -43 44 45 0
9 -13 -33 -41 42 -43 44 45 0
-9 -13 -33 -41 -42 43 -44 45 0
9 -13 33 -42 -43 44 45 0
9 -13 -33 -41 42 43 44 -45 0
-9 13 33 42 -43 44 -45 0
9 -13 33 -42 -43 -44 -45 0
-9 -13 33 -42 43 -44 -45 0
-9 -13 41 42 43 -44 45 0
9 -13 33 42 43 -44 -45 0
9 -13 33 -42 43 44 -45 0
-9 -13 41 -42 -43 44 -45 0
-17 -18 19 -20 43 0
17 -18 -19 20 -43 0
-17 -18 19 20 -43 0
-17 18 -19 20 -43 0
17 -18 -19 -20 43 0
17 18 -19 20 43 0
17 18 19 20 -43 0
17 18 -19 -20 -43 0
17 -18 19 -20 -43 0
17 18 19 -20 43 0
-17 18 19 -20 -43 0
-17 -18 -19 -20 -43 0
-17 -18 -19 20 43 0
17 -18 19 20 43 0
-9 -13 41 -42 43 -44 -45 0
-9 -13 33 42 43 44 -45 0
-17 18 -19 -20 43 0
9 -13 33 42 -43 44 -45 0
-21 -22 23 -24 44 0
21 -22 -23 24 -44 0
-21 -22 23 24 -44 0
-21 22 -23 24 -44 0
21 -22 -23 -24 44 0
21 22 -23 24 44 0
21 22 23 24 -44 0
21 22 -23 -24 -44 0
21 -22 23 -24 -44 0
21 22 23 -24 44 0
-21 22 23 -24 -44 0
-21 -22 -23 -24 -44 0
-21 -22 -23 24 44 0
21 -22 23 24 44 0
9 13 41 -42 43 44 45 0
-9 -13 -33 -41 42 43 44 45 0
-21 22 -23 -24 44 0
-9 -13 41 42 43 44 -45 0
9 -13 41 42 43 -44 -45 0
9 -13 -33 -41 -42 -43 44 -45 0
9 -13 -33 -41 -42 43 -44 -45 0
-9 13 -87 -123 0
9 -13 41 42 -43 44 -45 0
-43 -44 89 -125 0
43 -44 -89 -125 0
43 44 89 -125 0
-43 44 -89 -125 0
9 -13 41 -42 -43 44 45 0
9 -13 -87 -123 0
9 -13 41 -42 -43 -44 -45 0
-9 -13 33 42 43 -44 45 0
-9 13 33 42 -43 -44 45 0
-9 13 33 42 43 -44 -45 0
9 -13 33 42 43 44 45 0
-9 13 41 42 -43 44 -45 0
33 88 -124 0
-9 13 -33 -41 42 -43 -44 -45 0
-9 13 33 42 43 44 45 0
-17 -21 25 -29 46 0
17 -21 -25 29 -46 0
-17 -21 25 29 -46 0
-17 21 -25 29 -46 0
17 -21 -25 -29 46 0
17 21 -25 29 46 0
17 21 25 29 -46 0
17 21 -25 -29 -46 0
17 -21 25 -29 -46 0
17 21 25 -29 46 0
-17 21 25 -29 -46 0
-17 -21 -25 -29 -46 0
-17 -21 -25 29 46 0
17 -21 25 29 46 0
-9 13 33 -42 -43 44 45 0
-9 13 41 42 -43 -44 45 0
-17 21 -25 -29 46 0
-9 13 -33 -41 -42 43 44 45 0
37 -47 0
41 -47 0
-1 -2 3 -4 48 0
1 -2 -3 4 -48 0
-1 -2 3 4 -48 0
-1 2 -3 4 -48 0
1 -2 -3 -4 48 0
1 2 -3 4 48 0
1 2 3 4 -48 0
1 2 -3 -4 -48 0
1 -2 3 -4 -48 0
1 2 3 -4 48 0
-1 2 3 -4 -48 0
-1 -2 -3 -4 -48 0
-1 -2 -3 4 48 0
1 -2 3 4 48 0
9 13 33 -42 -43 44 -45 0
-9 13 41 -42 43 -44 45 0
-1 2 -3 -4 48 0
9 13 -33 -41 -42 43 44 -45 0
5 6 -49 0
5 -6 49 0
9 13 41 -42 43 -44 -45 0
-5 6 49 0
-5 -6 -49 0
9 13 41 -42 -43 44 -45 0
-7 -50 0
8 -50 0
7 -51 0
-8 -51 0
-50 52 0
-51 52 0
50 51 -52 0
41 -49 -52 56 60 -61 0
41 49 -52 -56 -60 61 0
9 13 33 42 -43 44 45 0
-40 -41 -49 -52 -56 60 -61 0
41 -49 52 -56 -60 61 0
-40 -41 49 52 56 -60 -61 0
-40 -41 49 -52 56 -60 61 0
-40 -41 -49 -52 56 -60 -61 0
-40 -41 -49 52 56 60 -61 0
46 -47 -48 -49 -52 -53 0
46 -47 48 49 -52 -53 0
40 -49 52 56 60 61 0
-40 -41 -49 52 56 -60 61 0
-46 47 48 -49 -52 53 0
-40 -41 -49 52 -56 -60 -61 0
46 -47 -48 49 -52 53 0
41 49 52 56 60 -61 0
-40 -41 -49 -52 56 60 61 0
46 -47 -48 49 52 -53 0
-46 47 -48 49 -52 53 0
40 -49 52 56 -60 -61 0
-46 -47 -48 49 -52 -53 0
-40 -41 49 52 -56 60 -61 0
40 -49 52 -56 -60 61 0
46 47 48 -49 -52 -53 0
41 -49 52 -56 60 -61 0
40 -49 52 -56 60 -61 0
46 47 -48 49 -52 -53 0
-40 -41 49 52 -56 -60 61 0
46 47 48 -49 52 53 0
41 -49 52 56 -60 -61 0
-40 -41 -49 52 -56 60 61 0
-46 -47 48 -49 52 53 0
41 49 -52 -56 60 -61 0
41 -49 52 56 60 61 0
-46 47 48 -49 52 -53 0
18 22 -54 0
18 -22 54 0
-46 -47 -48 -49 52 -53 0
-18 22 54 0
-18 -22 -54 0
46 -47 48 -49 52 -53 0
-26 -30 -38 -41 -54 -55 56 57 0
26 -30 -38 -41 54 -55 56 57 0
-26 -30 -38 -41 -54 -55 -56 -57 0
-26 30 -38 -41 54 -55 56 57 0
26 -30 -38 -41 54 -55 -56 -57 0
-26 -30 -38 -41 -54 55 56 -57 0
26 -30 38 -54 -55 56 57 0
26 -30 -38 -41 54 55 56 -57 0
26 -30 38 -54 -55 -56 -57 0
-26 -30 38 -54 55 -56 -57 0
26 -30 38 54 55 -56 -57 0
26 -30 38 -54 55 56 -57 0
26 -30 41 54 -55 -56 57 0
26 -30 38 54 -55 -56 57 0
-9 -10 11 -12 55 0
9 -10 -11 12 -55 0
-9 -10 11 12 -55 0
-9 10 -11 12 -55 0
9 -10 -11 -12 55 0
9 10 -11 12 55 0
9 10 11 12 -55 0
9 10 -11 -12 -55 0
9 -10 11 -12 -55 0
9 10 11 -12 55 0
-9 10 11 -12 -55 0
-9 -10 -11 -12 -55 0
-9 -10 -11 12 55 0
9 -10 11 12 55 0
-26 -30 -38 -41 54 -55 56 -57 0
-26 -30 38 -54 -55 -56 57 0
-9 10 -11 -12 55 0
-26 -30 41 -54 -55 -56 57 0
-13 -14 15 -16 56 0
13 -14 -15 16 -56 0
-13 -14 15 16 -56 0
-13 14 -15 16 -56 0
13 -14 -15 -16 56 0
13 14 -15 16 56 0
13 14 15 16 -56 0
13 14 -15 -16 -56 0
13 -14 15 -16 -56 0
13 14 15 -16 56 0
-13 14 15 -16 -56 0
-13 -14 -15 -16 -56 0
-13 -14 -15 16 56 0
13 -14 15 16 56 0
26 30 -38 -41 -54 55 -56 57 0
-26 -30 38 -54 -55 56 -57 0
-13 14 -15 -16 56 0
26 30 -38 -41 -54 -55 56 57 0
26 -30 41 54 55 -56 -57 0
26 -30 -38 -41 -54 -55 56 -57 0
-26 -30 38 54 55 -56 57 0
-26 30 -38 -41 54 55 -56 57 0
26 -30 41 -54 55 -56 57 0
26 -30 41 -54 55 56 -57 0
26 -30 41 -54 -55 56 57 0
26 -30 41 54 -55 56 -57 0
-26 30 -38 -41 54 -55 -56 -57 0
-26 -30 38 54 -55 -56 -57 0
26 -30 41 54 55 56 57 0
26 -30 -38 -41 -54 55 -56 -57 0
26 -30 41 -54 -55 -56 -57 0
-26 -30 41 -54 55 56 57 0
-26 30 -38 -41 -54 55 -56 -57 0
-26 30 38 54 55 56 57 0
26 -30 -38 -41 -54 -55 -56 57 0
-26 30 -38 -41 -54 -55 56 -57 0
19 23 -58 0
19 -23 58 0
-26 30 38 -54 -55 -56 -57 0
-19 23 58 0
-19 -23 -58 0
-26 30 38 -54 55 -56 57 0
-27 -31 -39 -41 -48 55 -58 59 0
27 -31 -39 -41 -48 55 58 59 0
-27 -31 -39 -41 -48 -55 -58 -59 0
-27 31 -39 -41 -48 55 58 59 0
27 -31 -39 -41 -48 -55 58 -59 0
-27 -31 -39 -41 48 55 -58 -59 0
27 -31 39 -48 55 -58 59 0
27 -31 -39 -41 48 55 58 -59 0
27 -31 39 -48 -55 -58 -59 0
-27 -31 39 48 -55 -58 -59 0
27 -31 39 48 -55 58 -59 0
27 -31 39 48 55 -58 -59 0
27 -31 41 -48 -55 58 59 0
27 -31 39 -48 -55 58 59 0
27 -31 41 48 -55 58 -59 0
27 -31 -39 -41 -48 55 -58 -59 0
-27 -31 39 48 -55 58 59 0
-27 31 -39 -41 48 -55 58 59 0
27 -31 41 48 -55 -58 59 0
27 -31 41 48 55 -58 -59 0
27 -31 41 -48 55 -58 59 0
27 -31 41 -48 55 58 -59 0
-27 31 -39 -41 -48 -55 58 -59 0
-27 -31 39 -48 -55 58 -59 0
27 -31 41 48 55 58 59 0
27 -31 -39 -41 48 -55 -58 -59 0
27 -31 41 -48 -55 -58 -59 0
-27 -31 41 48 55 -58 59 0
-27 -31 -39 -41 -48 55 58 -59 0
-27 -31 39 -48 -55 -58 59 0
27 -31 -39 -41 -48 -55 -58 59 0
-27 -31 41 -48 -55 -58 59 0
-20 -24 28 -32 60 0
20 -24 -28 32 -60 0
-20 -24 28 32 -60 0
-20 24 -28 32 -60 0
20 -24 -28 -32 60 0
20 24 -28 32 60 0
20 24 28 32 -60 0
20 24 -28 -32 -60 0
20 -24 28 -32 -60 0
20 24 28 -32 60 0
-20 24 28 -32 -60 0
-20 -24 -28 -32 -60 0
-20 -24 -28 32 60 0
20 -24 28 32 60 0
27 31 -39 -41 48 -55 -58 59 0
-27 -31 39 -48 55 -58 -59 0
-20 24 -28 -32 60 0
27 31 -39 -41 -48 55 -58 59 0
40 49 51 56 -60 115 0
-40 -41 49 51 56 -60 -115 0
40 -49 -52 56 60 -61 0
41 49 -52 56 -60 -61 0
-46 47 -48 -49 -52 -53 0
41 -49 -52 -56 -60 -61 0
40 -49 -52 56 -60 61 0
41 -49 -52 -56 60 61 0
40 -49 -52 -56 -60 -61 0
40 49 -52 56 60 61 0
40 49 -52 56 -60 -61 0
46 47 48 49 -52 53 0
41 49 51 -56 -60 -115 0
41 -49 -52 56 -60 61 0
46 47 -48 -49 -52 53 0
40 49 -52 -56 -60 61 0
40 49 51 -56 -60 -115 0
41 -49 50 -56 60 -115 0
41 -49 50 -56 -60 115 0
41 -49 50 56 -60 -115 0
41 49 51 56 -60 115 0
41 -49 50 56 60 115 0
2 6 -62 0
2 -6 62 0
41 49 50 -56 60 115 0
-2 6 62 0
-2 -6 -62 0
41 49 50 56 60 -115 0
-10 -14 -34 -41 -62 -63 64 65 0
10 -14 -34 -41 62 -63 64 65 0
-10 -14 -34 -41 -62 63 -64 65 0
10 -14 -34 -41 -62 -63 -64 65 0
10 -14 -34 -41 62 63 -64 65 0
10 -14 34 -62 -63 64 65 0
-10 -14 -34 -41 -62 63 64 -65 0
10 -14 -34 -41 62 63 64 -65 0
10 -14 34 -62 63 -64 65 0
34 -63 64 -97 -133 0
10 -14 34 62 -63 -64 65 0
-25 -26 27 -28 63 0
25 -26 -27 28 -63 0
-25 -26 27 28 -63 0
-25 26 -27 28 -63 0
25 -26 -27 -28 63 0
25 26 -27 28 63 0
25 26 27 28 -63 0
25 26 -27 -28 -63 0
25 -26 27 -28 -63 0
25 26 27 -28 63 0
-25 26 27 -28 -63 0
-25 -26 -27 -28 -63 0
-25 -26 -27 28 63 0
25 -26 27 28 63 0
41 -63 -64 97 -133 0
-25 26 -27 -28 63 0
-29 -30 31 -32 64 0
29 -30 -31 32 -64 0
-29 -30 31 32 -64 0
-29 30 -31 32 -64 0
29 -30 -31 -32 64 0
29 30 -31 32 64 0
29 30 31 32 -64 0
29 30 -31 -32 -64 0
29 -30 31 -32 -64 0
29 30 31 -32 64 0
-29 30 31 -32 -64 0
-29 -30 -31 -32 -64 0
-29 -30 -31 32 64 0
29 -30 31 32 64 0
10 -14 -34 -41 62 -63 -64 -65 0
-29 30 -31 -32 64 0
-10 -14 62 96 -132 0
-34 -41 -63 -64 -97 -133 0
-10 14 62 -96 -132 0
10 -14 41 62 63 -64 -65 0
-10 -14 41 -62 63 64 65 0
10 -14 -62 96 -132 0
34 -63 -64 97 -133 0
-34 -41 63 -64 97 -133 0
-34 -41 63 64 -97 -133 0
10 -14 34 62 63 64 65 0
-34 -41 -63 64 97 -133 0
10 -14 41 -62 63 64 -65 0
-10 -14 -34 -41 62 63 64 65 0
10 -14 41 62 -63 -64 65 0
10 -14 41 -62 -63 -64 -65 0
3 7 -66 0
3 -7 66 0
41 -63 64 -97 -133 0
-3 7 66 0
-3 -7 -66 0
-11 -15 -35 -41 -43 63 -66 67 0
11 -15 -35 -41 -43 63 66 67 0
-11 -15 -35 -41 43 -63 -66 67 0
11 -15 -35 -41 -43 -63 -66 67 0
11 -15 -35 -41 43 -63 66 67 0
11 -15 35 -43 63 -66 67 0
-11 -15 -35 -41 43 63 -66 -67 0
11 -15 -35 -41 43 63 66 -67 0
11 -15 35 43 -63 -66 67 0
35 -43 63 -95 -131 0
11 -15 35 -43 -63 66 67 0
-35 -41 -43 -63 -95 -131 0
-11 15 66 -94 -130 0
11 -15 41 43 -63 66 -67 0
-11 -15 41 43 63 -66 67 0
11 -15 -66 94 -130 0
35 -43 -63 95 -131 0
-35 -41 43 -63 95 -131 0
-35 -41 43 63 -95 -131 0
11 -15 35 43 63 66 67 0
-35 -41 -43 63 95 -131 0
11 -15 41 43 63 -66 -67 0
-11 -15 -35 -41 43 63 66 67 0
11 -15 41 -43 -63 66 67 0
11 -15 41 -43 -63 -66 -67 0
4 8 -68 0
4 -8 68 0
41 -43 63 -95 -131 0
-4 8 68 0
-4 -8 -68 0
-12 -16 -36 -41 -44 64 -68 69 0
12 -16 -36 -41 -44 64 68 69 0
-12 -16 -36 -41 44 -64 -68 69 0
12 -16 36 -44 64 -68 69 0
12 -16 -36 -41 44 64 68 -69 0
-12 16 36 -44 64 68 -69 0
12 -16 36 -44 -64 -68 -69 0
-12 -16 36 44 -64 -68 -69 0
-12 -16 41 44 -64 68 69 0
12 -16 36 44 -64 68 -69 0
12 -16 36 44 64 -68 -69 0
-12 -16 41 -44 64 -68 -69 0
12 -16 41 44 -64 68 -69 0
12 -16 -36 -41 -44 64 -68 -69 0
12 -16 -36 -41 44 -64 -68 -69 0
-12 16 -91 -127 0
12 -16 41 -44 64 68 -69 0
-44 -64 93 -129 0
44 -64 -93 -129 0
44 64 93 -129 0
-44 64 -93 -129 0
12 -16 41 -44 64 -68 69 0
12 -16 -36 -41 -44 -64 -68 69 0
12 -16 41 -44 -64 -68 -69 0
-12 -16 36 44 -64 68 69 0
-12 -16 41 -44 64 68 69 0
-12 -16 36 -44 -64 -68 69 0
12 -16 36 44 64 68 69 0
12 -16 36 -44 64 68 -69 0
36 92 -128 0
-12 -16 36 44 64 68 -69 0
-12 -16 36 44 64 -68 69 0
-45 -65 -70 0
45 -53 57 -59 61 65 67 -69 70 0
45 53 -57 59 -61 65 67 -69 73 0
45 53 -57 -59 61 65 67 -69 72 0
45 65 67 69 -73 0
-45 -67 -70 0
45 -53 57 -59 61 65 -67 69 70 0
45 53 -57 59 -61 65 -67 69 73 0
45 53 -57 -59 61 65 -67 69 72 0
-12 -16 -36 -41 -44 -64 -68 -69 0
-45 -69 -70 0
45 -53 57 -59 61 -65 67 69 70 0
45 53 -57 59 -61 -65 67 69 73 0
45 53 -57 -59 61 -65 67 69 72 0
-65 -69 -73 0
45 65 67 69 -71 0
-45 -53 57 -59 61 65 67 69 70 0
-45 53 -57 59 -61 65 67 69 73 0
-45 53 -57 -59 61 65 67 69 72 0
12 -16 36 44 -64 -68 69 0
-45 -65 -71 0
-12 -16 41 44 64 68 -69 0
-12 -16 41 -44 -64 -68 69 0
-67 -69 -70 0
45 -53 57 59 -61 -65 67 69 71 0
53 -70 0
-57 -70 0
59 -70 0
-61 -70 0
-45 -65 -72 0
45 -53 57 59 -61 65 -67 69 71 0
45 -80 -116 -120 0
-53 -74 -83 -120 0
-45 -69 -71 0
12 16 41 44 64 -68 69 0
-65 -70 116 -120 0
65 -81 -116 -120 0
-81 -82 -116 0
80 81 82 83 -118 0
67 -82 -116 -120 0
-67 -70 116 -120 0
-57 -74 -83 -120 0
-40 -41 -49 51 -56 -60 -115 0
-81 -82 -117 0
69 -83 -116 -120 0
-61 -74 -83 -120 0
-61 -74 84 -120 0
-53 -74 82 -120 0
40 49 -52 -56 60 -61 0
-40 -41 49 51 -56 60 -115 0
53 -71 0
-57 -71 0
-59 -71 0
61 -71 0
-45 -65 -73 0
-45 -67 -71 0
45 -80 -117 -120 0
-45 -71 117 -120 0
-59 -74 -83 -120 0
-57 -76 84 -120 0
-46 -47 -48 49 51 114 0
-46 47 48 49 51 114 0
-65 -71 117 -120 0
-65 -71 81 -120 0
65 -81 -117 -120 0
-65 -67 -73 0
-65 -69 -71 0
-67 -71 117 -120 0
-67 -71 82 -120 0
67 -82 -117 -120 0
-12 -16 36 -44 64 68 69 0
-67 -69 -71 0
-69 -71 117 -120 0
-69 -71 83 -120 0
69 -83 -117 -120 0
-12 16 36 44 64 68 69 0
-12 16 41 -44 -64 68 69 0
-53 -72 0
57 -72 0
59 -72 0
-61 -72 0
45 -53 57 59 -61 65 67 -69 71 0
-45 -67 -72 0
-45 -72 118 -120 0
-45 -72 80 -120 0
45 -80 -118 -120 0
-12 16 36 44 -64 -68 69 0
-12 16 41 -44 64 -68 69 0
65 -81 -118 -120 0
-65 -72 118 -120 0
-65 -72 81 -120 0
12 16 36 -44 64 -68 -69 0
12 16 36 44 64 -68 69 0
-67 -72 118 -120 0
-67 -72 82 -120 0
67 -82 -118 -120 0
12 16 -36 -41 44 64 68 69 0
12 16 36 -44 -64 68 -69 0
69 -83 -118 -120 0
-69 -72 118 -120 0
-69 -72 83 -120 0
-11 -15 35 -43 63 -66 -67 0
-11 -15 35 43 -63 -66 -67 0
-53 -73 0
57 -73 0
-59 -73 0
61 -73 0
-67 -69 -73 0
-45 -67 -73 0
45 -80 -119 -120 0
-45 -73 80 -120 0
-11 -15 41 -43 -63 -66 67 0
-11 -15 -35 -41 -43 63 66 -67 0
65 -81 -119 -120 0
-65 -73 81 -120 0
-11 -15 41 -43 -63 66 -67 0
67 -82 -119 -120 0
-67 -73 119 -120 0
-11 15 35 -43 -63 66 67 0
-11 15 41 43 -63 66 -67 0
-69 -73 119 -120 0
69 -83 -119 -120 0
-11 15 -35 -41 -43 -63 -66 67 0
-11 15 35 43 -63 -66 67 0
-53 -57 -74 0
-45 53 57 59 -61 65 -67 69 74 0
45 53 57 59 -61 -65 67 -69 77 0
45 53 57 59 -61 -65 -67 69 76 0
53 57 59 61 -77 0
-53 -59 -74 0
-45 53 57 -59 61 65 -67 69 74 0
45 53 57 -59 61 -65 67 -69 77 0
45 53 57 -59 61 -65 -67 69 76 0
11 15 35 -43 -63 -66 67 0
-53 -61 -74 0
-45 53 -57 59 61 65 -67 69 74 0
45 53 -57 59 61 -65 67 -69 77 0
45 53 -57 59 61 -65 -67 69 76 0
-57 -61 -77 0
53 57 59 61 -75 0
-45 -53 57 59 61 65 -67 69 74 0
45 -53 57 59 61 -65 67 -69 77 0
45 -53 57 59 61 -65 -67 69 76 0
11 15 35 43 63 -66 67 0
-53 -57 -75 0
11 15 41 43 -63 -66 -67 0
-11 15 41 43 63 -66 -67 0
-59 -61 -74 0
-45 53 -57 59 61 65 67 -69 75 0
45 -74 0
-65 -74 0
67 -74 0
-69 -74 0
-53 -57 -76 0
-45 53 57 -59 61 65 67 -69 75 0
-59 -74 -81 -120 0
-53 -74 114 -120 0
-57 -74 80 -120 0
-53 -61 -75 0
11 15 41 -43 -63 -66 67 0
-57 -59 -76 0
-53 -74 -81 -120 0
11 15 -35 -41 43 63 -66 -67 0
-57 -59 -77 0
74 -80 81 -82 83 -84 -114 -120 0
-57 -61 -76 0
53 57 59 61 -74 0
-11 15 41 -43 -63 -66 -67 0
11 15 35 43 -63 66 67 0
11 15 41 43 -63 66 67 0
11 15 35 -43 63 66 67 0
61 -80 81 -82 83 -84 -115 -120 0
-10 -14 41 62 63 64 -65 0
-61 -74 82 -120 0
11 15 35 -43 -63 66 -67 0
10 14 -34 -41 -62 -63 64 65 0
-57 -74 -81 -120 0
-61 -74 115 -120 0
-59 -74 80 -120 0
-10 14 41 62 -63 64 -65 0
-10 14 41 62 63 64 65 0
45 -75 0
-65 -75 0
-67 -75 0
69 -75 0
-53 -57 -77 0
-53 -59 -75 0
53 -79 -114 -120 0
-53 -75 114 -120 0
-10 14 34 -62 -63 64 65 0
-10 14 34 -62 63 64 -65 0
10 14 -34 -41 -62 63 64 -65 0
-57 -75 79 -120 0
10 14 34 -62 63 64 65 0
10 14 -34 -41 -62 -63 -64 -65 0
-57 75 -79 -120 0
10 14 62 96 -132 0
10 14 34 -62 -63 64 -65 0
10 14 -34 -41 62 63 -64 -65 0
75 -78 -120 0
10 14 34 62 63 64 -65 0
10 14 41 62 -63 -64 -65 0
41 -49 51 56 60 115 0
61 -79 -115 -120 0
-40 -41 49 -52 -56 -60 -61 0
-27 31 39 48 -55 58 -59 0
-45 -76 0
65 -76 0
67 -76 0
-69 -76 0
-45 53 57 59 -61 65 67 -69 75 0
-53 -59 -76 0
-57 -76 -80 -120 0
-27 31 -39 -41 48 -55 -58 -59 0
-27 31 39 -48 55 -58 59 0
-27 31 41 48 55 -58 -59 0
-61 -76 81 -120 0
27 31 39 -48 -55 -58 59 0
-27 31 41 -48 -55 -58 -59 0
27 31 41 -48 -55 -58 59 0
-27 -31 -39 -41 48 -55 -58 59 0
27 31 -39 -41 -48 -55 58 59 0
27 31 41 48 -55 58 59 0
-57 -76 81 -120 0
-26 30 41 -54 55 56 -57 0
27 31 41 -48 55 58 59 0
26 30 38 -54 55 56 57 0
27 31 41 -48 -55 58 -59 0
26 30 41 -54 -55 -56 57 0
-61 -76 -80 -120 0
26 30 38 54 -55 -56 -57 0
26 30 41 54 55 -56 57 0
-45 -77 0
65 -77 0
-67 -77 0
69 -77 0
-59 -61 -77 0
-53 -59 -77 0
-57 -77 -80 -120 0
40 49 52 56 60 -61 0
41 49 52 56 -60 61 0
46 47 48 49 52 -53 0
-53 -77 81 -120 0
9 13 33 42 -43 -44 -45 0
-46 47 48 49 52 53 0
-59 -77 -80 -120 0
9 13 41 42 -43 -44 -45 0
9 13 -33 -41 42 -43 -44 45 0
-61 -77 81 -120 0
-61 -77 -80 -120 0
-9 13 41 42 43 44 45 0
-9 13 41 42 43 -44 -45 0
-17 21 25 29 46 0
-9 13 -33 -41 -42 -43 44 -45 0
-9 13 -33 -41 -42 43 -44 -45 0
-9 13 -33 -41 -42 -43 -44 45 0
-9 13 33 -42 43 -44 45 0
-9 13 33 -42 43 44 -45 0
-9 13 33 -42 -43 -44 -45 0
-37 -41 47 0
-9 13 41 -42 -43 -44 -45 0
-9 13 41 -42 -43 44 45 0
-1 2 3 4 48 0
-9 13 41 -42 43 44 -45 0
-9 -13 87 -123 0
9 13 -33 -41 -42 -43 -44 -45 0
9 13 33 -42 43 -44 -45 0
9 13 33 -42 43 44 45 0
9 13 33 -42 -43 -44 45 0
9 13 41 -42 -43 -44 45 0
9 13 -33 -41 42 43 -44 -45 0
9 13 -33 -41 42 -43 44 -45 0
7 -8 50 0
-7 8 51 0
40 -49 50 56 60 115 0
40 -49 51 56 -60 -115 0
40 49 51 -56 60 115 0
-40 -41 -49 50 56 -60 115 0
-40 -41 49 50 56 60 115 0
-40 -41 -49 50 -56 -60 -115 0
46 47 48 -49 50 114 0
40 49 50 -56 60 115 0
-40 -41 -49 50 -56 60 115 0
40 -49 51 -56 -60 115 0
40 49 50 56 -60 115 0
-46 47 48 -49 50 -114 0
-40 -41 49 50 56 -60 -115 0
-46 -47 48 -49 50 114 0
46 47 -48 -49 50 -114 0
40 49 50 56 60 -115 0
46 -47 48 -49 50 -114 0
-40 -41 49 50 -56 60 -115 0
-46 47 -48 -49 50 114 0
46 -47 -48 -49 50 114 0
-40 -41 49 50 -56 -60 115 0
40 49 50 -56 -60 -115 0
-46 -47 -48 -49 50 -114 0
46 -47 -48 49 50 -114 0
46 -47 -48 -49 52 53 0
46 47 -48 -49 52 -53 0
-46 47 -48 -49 52 53 0
40 49 52 -56 60 61 0
26 30 -38 -41 -54 55 56 -57 0
-26 30 -38 -41 54 55 56 -57 0
-26 30 38 54 -55 -56 57 0
-26 -30 41 54 55 -56 57 0
-26 -30 41 -54 -55 56 -57 0
-26 -30 38 54 55 56 -57 0
-26 -30 41 54 -55 56 57 0
26 -30 -38 -41 -54 55 56 57 0
-9 10 11 12 55 0
-26 -30 38 -54 55 56 57 0
26 -30 38 54 -55 56 -57 0
-26 -30 41 -54 55 -56 -57 0
-26 -30 -38 -41 54 55 -56 -57 0
-26 -30 -38 -41 54 -55 -56 57 0
-26 -30 -38 -41 54 55 56 57 0
26 -30 38 -54 55 -56 57 0
-26 -30 38 54 -55 56 57 0
-13 14 15 16 56 0
-26 -30 41 54 -55 -56 -57 0
-26 -30 41 54 55 56 -57 0
26 30 41 -54 55 56 57 0
26 30 -38 -41 -54 -55 -56 -57 0
-26 30 38 54 -55 56 -57 0
26 -30 -38 -41 54 55 -56 57 0
-26 30 41 54 -55 56 -57 0
-26 30 38 54 55 -56 -57 0
26 -30 38 54 55 56 57 0
-26 30 41 54 55 -56 -57 0
-26 30 41 54 -55 -56 57 0
-26 30 41 54 55 56 57 0
-26 30 -38 -41 -54 -55 -56 57 0
-26 30 38 -54 -55 56 57 0
-26 30 -38 -41 -54 55 56 57 0
-26 30 38 -54 55 56 -57 0
-26 30 41 -54 55 -56 57 0
-26 30 41 -54 -55 56 57 0
-26 -30 -38 -41 -54 55 -56 57 0
27 31 -39 -41 48 55 -58 -59 0
-27 31 -39 -41 48 55 58 -59 0
-27 31 39 -48 -55 58 59 0
-27 -31 41 48 -55 58 59 0
-27 -31 41 -48 55 -58 -59 0
-27 -31 39 48 55 58 -59 0
-27 -31 41 -48 55 58 59 0
27 -31 -39 -41 48 55 -58 59 0
27 -31 39 48 55 58 59 0
-27 -31 39 48 55 -58 59 0
27 -31 39 -48 55 58 -59 0
-27 -31 41 48 -55 -58 -59 0
-27 -31 -39 -41 48 -55 58 -59 0
-27 -31 -39 -41 48 55 58 59 0
-27 -31 -39 -41 -48 -55 58 59 0
27 -31 39 48 -55 -58 59 0
-27 -31 39 -48 55 58 59 0
-20 24 28 32 60 0
-27 -31 41 -48 -55 58 -59 0
-27 -31 41 48 55 58 -59 0
27 31 41 48 55 -58 59 0
27 31 -39 -41 -48 -55 -58 -59 0
-27 31 39 -48 55 58 -59 0
27 -31 -39 -41 48 -55 58 59 0
40 -49 50 -56 60 -115 0
-40 -41 -49 51 56 60 -115 0
-40 -41 -49 50 56 60 -115 0
40 -49 50 56 -60 -115 0
40 -49 51 -56 60 -115 0
46 47 -48 49 50 114 0
-46 47 -48 49 50 -114 0
46 -47 48 49 50 114 0
-46 -47 48 49 50 -114 0
40 -49 50 -56 -60 115 0
46 47 48 49 50 -114 0
-46 -47 -48 49 50 114 0
-46 47 48 49 50 114 0
-80 -81 -116 0
57 -59 80 81 82 -83 -114 115 116 0
-57 59 80 81 82 -83 114 -115 119 0
-57 -59 80 81 82 -83 114 115 118 0
80 81 82 83 -119 0
-80 -82 -116 0
57 -59 80 81 -82 83 -114 115 116 0
-57 59 80 81 -82 83 114 -115 119 0
-57 -59 80 81 -82 83 114 115 118 0
46 47 48 -49 51 114 0
-80 -83 -116 0
57 -59 80 -81 82 83 -114 115 116 0
-57 59 80 -81 82 83 114 -115 119 0
-57 -59 80 -81 82 83 114 115 118 0
-81 -83 -119 0
80 81 82 83 -117 0
57 -59 -80 81 82 83 -114 115 116 0
-57 59 -80 81 82 83 114 -115 119 0
-57 -59 -80 81 82 83 114 115 118 0
-46 47 48 -49 51 -114 0
-80 -81 -117 0
46 -47 48 -49 51 -114 0
40 -49 51 56 60 115 0
-82 -83 -116 0
57 59 80 -81 82 83 -114 -115 117 0
114 -116 0
-57 -116 0
59 -116 0
-115 -116 0
-80 -81 -118 0
57 59 80 81 -82 83 -114 -115 117 0
12 16 -36 -41 -44 64 -68 69 0
-45 -70 80 -120 0
-80 -83 -118 0
-45 -69 -72 0
-45 -69 -73 0
-80 -83 -117 0
70 -80 -116 -120 0
-45 -70 116 -120 0
57 59 -80 81 82 83 -114 -115 117 0
-53 -74 84 -120 0
-40 -41 -49 51 56 -60 115 0
-65 -70 81 -120 0
-81 -82 -119 0
-46 -47 -48 -49 51 -114 0
46 -47 -48 49 51 -114 0
-81 -82 -118 0
70 -81 -116 -120 0
80 81 82 83 -116 0
70 -82 -116 -120 0
-81 -83 -116 0
-67 -70 82 -120 0
-40 -41 49 51 -56 -60 115 0
-82 -83 -118 0
-81 -83 -117 0
40 49 51 56 60 -115 0
-57 -74 84 -120 0
46 47 -48 -49 51 -114 0
-69 -70 83 -120 0
-40 -41 49 51 56 60 115 0
-46 -47 48 -49 51 114 0
-82 -83 -117 0
70 -83 -116 -120 0
-69 -70 116 -120 0
114 -117 0
-57 -117 0
-59 -117 0
115 -117 0
-80 -81 -119 0
-80 -82 -117 0
-59 -74 84 -120 0
46 -47 48 49 51 114 0
-45 -71 80 -120 0
-65 -67 -70 0
-46 47 -48 49 51 -114 0
46 47 -48 49 51 114 0
-12 -16 -36 -41 44 64 68 69 0
71 -80 -117 -120 0
-12 -16 -36 -41 -44 64 68 -69 0
45 65 67 69 -70 0
-12 -16 -36 -41 -44 -64 68 69 0
12 16 91 -127 0
45 65 67 69 -72 0
71 -81 -117 -120 0
-65 -69 -70 0
-12 -16 41 44 -64 -68 -69 0
12 -16 -91 -127 0
-65 -69 -72 0
-65 -67 -71 0
-12 16 -36 -41 -44 -64 68 -69 0
71 -82 -117 -120 0
-12 16 -36 -41 44 64 68 -69 0
-59 -74 82 -120 0
-12 16 41 44 -64 68 -69 0
-12 16 -36 -41 -44 64 -68 -69 0
-12 16 36 -44 -64 68 69 0
-12 16 36 44 -64 68 -69 0
-12 16 -36 -41 44 -64 -68 -69 0
71 -83 -117 -120 0
-12 16 -36 -41 -44 -64 -68 69 0
-114 -118 0
57 -118 0
59 -118 0
-115 -118 0
57 59 80 81 82 -83 -114 -115 117 0
-80 -82 -118 0
72 -80 -118 -120 0
-12 16 36 44 64 -68 -69 0
-12 16 41 -44 -64 -68 -69 0
-12 16 36 -44 64 -68 69 0
-12 16 -36 -41 44 64 -68 69 0
-12 16 41 44 64 -68 -69 0
-61 -76 84 -120 0
-12 -16 91 -127 0
12 16 36 -44 -64 -68 69 0
12 16 41 44 -64 -68 -69 0
12 16 -36 -41 44 64 -68 -69 0
12 16 -36 -41 -44 -64 -68 -69 0
12 16 41 -44 -64 -68 69 0
72 -81 -118 -120 0
12 16 -36 -41 -44 64 68 -69 0
12 16 36 44 -64 68 69 0
12 16 41 -44 64 68 69 0
12 16 -36 -41 -44 -64 68 69 0
12 16 -36 -41 44 -64 68 -69 0
12 16 41 44 -64 68 69 0
72 -82 -118 -120 0
12 16 41 -44 -64 68 -69 0
72 -83 -118 -120 0
-11 -15 35 -43 -63 66 -67 0
41 43 63 95 -131 0
11 -15 -35 -41 43 -63 -66 -67 0
12 16 41 44 64 68 -69 0
11 -15 -35 -41 -43 -63 66 -67 0
-11 -15 35 43 63 -66 67 0
-114 -119 0
57 -119 0
-59 -119 0
115 -119 0
-82 -83 -119 0
-80 -82 -119 0
-11 -15 -35 -41 -43 -63 66 67 0
-11 -15 41 43 -63 -66 -67 0
-11 -15 41 -43 63 -66 -67 0
-11 -15 -35 -41 -43 -63 -66 -67 0
73 -80 -119 -120 0
-45 -73 119 -120 0
11 -15 -35 -41 43 63 -66 67 0
73 -81 -119 -120 0
11 15 41 43 63 -66 67 0
11 15 -35 -41 -43 63 -66 67 0
-11 -15 41 43 -63 66 67 0
-11 -15 41 -43 63 66 67 0
11 -15 66 -94 -130 0
-65 -73 119 -120 0
-11 15 -35 -41 -43 -63 66 -67 0
73 -82 -119 -120 0
-11 15 41 -43 63 66 -67 0
-67 -73 82 -120 0
-11 15 41 43 63 66 67 0
-11 15 35 43 -63 66 -67 0
-11 15 -35 -41 43 63 66 -67 0
-11 15 -66 94 -130 0
73 -83 -119 -120 0
-11 15 35 -43 63 -66 67 0
-69 -73 83 -120 0
-11 15 35 43 63 -66 -67 0
-11 15 -35 -41 43 -63 -66 -67 0
-11 15 -35 -41 -43 63 -66 -67 0
-11 15 41 -43 63 -66 67 0
-11 15 41 43 -63 -66 67 0
-61 -74 -81 -120 0
-57 74 -80 81 -82 83 -84 -120 0
-59 74 -80 81 -82 83 -84 -120 0
74 -80 81 -82 83 -84 -115 -120 0
53 -80 81 -82 83 -84 -114 -120 0
-57 -74 82 -120 0
11 15 -35 -41 -43 63 66 -67 0
11 15 35 -43 63 -66 -67 0
-53 -61 -76 0
-53 -61 -77 0
-11 -15 -66 -94 -130 0
-53 -74 80 -120 0
53 57 59 61 -76 0
11 15 66 94 -130 0
-57 -61 -75 0
11 15 -35 -41 -43 -63 -66 -67 0
11 15 41 -43 63 -66 -67 0
-57 -59 -75 0
-57 -61 -74 0
11 15 -35 -41 43 -63 66 -67 0
-59 -61 -76 0
11 15 -35 -41 -43 -63 66 67 0
11 15 41 -43 -63 66 -67 0
11 15 35 43 63 66 -67 0
10 14 -62 -96 -132 0
-10 14 -34 -41 62 -63 -64 -65 0
-10 -14 41 62 -63 -64 -65 0
11 15 41 43 63 66 -67 0
-10 14 -34 -41 62 63 64 -65 0
11 15 41 -43 63 66 67 0
-10 14 34 62 63 -64 -65 0
-61 -74 80 -120 0
-10 14 41 62 -63 -64 65 0
-10 14 34 62 63 64 65 0
-10 14 34 62 -63 -64 65 0
-10 14 -34 -41 -62 -63 64 -65 0
-10 14 -34 -41 -62 63 -64 -65 0
-10 14 34 -62 -63 -64 -65 0
-53 -75 79 -120 0
-10 14 41 -62 63 -64 65 0
-10 14 -34 -41 -62 63 64 65 0
-10 14 -34 -41 -62 -63 -64 65 0
-10 14 41 -62 -63 -64 -65 0
75 -79 -114 -120 0
-10 14 41 -62 63 64 -65 0
10 14 41 -62 -63 64 -65 0
10 14 34 -62 63 -64 -65 0
10 14 -34 -41 62 -63 64 -65 0
10 14 -34 -41 62 63 64 65 0
10 14 41 -62 -63 -64 65 0
10 14 41 -62 63 -64 -65 0
10 14 34 62 -63 64 65 0
10 14 34 -62 -63 -64 65 0
10 14 34 62 63 -64 65 0
10 14 41 62 63 -64 65 0
10 14 41 62 -63 64 65 0
-46 47 48 49 -52 -53 0
-59 -75 78 -120 0
10 14 34 62 -63 -64 -65 0
-46 -47 48 49 -52 53 0
10 14 41 62 63 64 -65 0
41 49 51 56 60 -115 0
-46 -47 -48 -49 -52 53 0
40 -49 -52 -56 60 61 0
-61 -75 79 -120 0
-27 31 41 -48 55 58 -59 0
-40 -41 49 -52 56 60 -61 0
-46 -47 48 -49 -52 -53 0
-27 31 41 48 -55 58 -59 0
75 -79 -115 -120 0
-61 -75 115 -120 0
-27 31 41 -48 -55 58 59 0
-53 -76 81 -120 0
-57 76 80 -81 -82 83 -84 -120 0
-59 76 80 -81 -82 83 -84 -120 0
76 80 -81 -82 83 -84 -115 -120 0
76 80 -81 -82 83 -84 -114 -120 0
-59 -76 82 -120 0
-27 31 -39 -41 48 55 -58 59 0
-53 -76 114 -120 0
-27 31 39 -48 -55 -58 -59 0
-27 31 -39 -41 -48 55 -58 -59 0
-27 31 41 48 55 58 59 0
-27 31 39 48 55 -58 -59 0
-59 -76 -80 -120 0
-59 -76 81 -120 0
-27 31 41 -48 55 -58 59 0
27 31 39 48 55 -58 59 0
27 31 39 -48 55 -58 -59 0
27 31 -39 -41 48 -55 58 -59 0
27 31 39 -48 55 58 59 0
27 31 41 48 -55 -58 -59 0
27 31 41 -48 55 -58 -59 0
27 31 39 48 -55 58 59 0
27 31 39 48 -55 -58 -59 0
27 31 39 -48 -55 58 -59 0
26 30 38 -54 -55 56 -57 0
27 31 41 48 55 58 -59 0
26 30 41 -54 55 -56 -57 0
26 30 -38 -41 54 55 -56 -57 0
26 30 38 -54 -55 -56 57 0
26 30 38 -54 55 -56 -57 0
26 30 -38 -41 54 -55 -56 57 0
-26 30 41 -54 -55 -56 -57 0
26 30 -38 -41 54 55 56 57 0
26 30 41 54 -55 56 57 0
-61 -76 115 -120 0
26 30 41 54 55 56 -57 0
26 30 38 54 55 -56 57 0
26 30 38 54 -55 56 57 0
-40 -41 -49 -52 -56 -60 61 0
-53 -76 -80 -120 0
-53 -76 82 -120 0
-40 -41 49 52 56 60 61 0
-57 -77 81 -120 0
77 80 -81 82 -83 -84 -115 -120 0
-59 77 80 -81 82 -83 -84 -120 0
53 80 -81 82 -83 -84 -114 -120 0
77 80 -81 82 -83 -84 -114 -120 0
-53 -77 -82 -120 0
41 49 52 -56 -60 -61 0
-53 -77 114 -120 0
-46 47 -48 49 52 -53 0
40 49 52 56 -60 61 0
40 49 52 -56 -60 -61 0
-46 -47 -48 49 52 53 0
-53 -77 -80 -120 0
-59 -77 81 -120 0
-46 -47 48 49 52 -53 0
9 13 33 42 43 44 -45 0
9 13 -33 -41 42 43 44 45 0
9 13 41 42 43 -44 45 0
9 13 41 42 -43 44 45 0
9 13 33 42 43 -44 45 0
-61 -77 115 -120 0
-57 -77 -82 -120 0
-57 77 80 -81 82 -83 -84 -120 0
9 13 -33 -41 -42 43 -44 45 0
-9 13 -33 -41 42 43 -44 45 0
-9 -13 33 42 -43 -44 -45 0
9 -13 -33 -41 -42 43 44 45 0
9 -13 -33 -41 -42 -43 -44 45 0
-17 18 19 20 43 0
-9 -13 33 -42 -43 -44 45 0
-9 -13 41 42 -43 44 45 0
-9 -13 33 -42 43 44 45 0
-9 -13 41 -42 -43 -44 45 0
-9 -13 -33 -41 42 43 -44 -45 0
-9 -13 -33 -41 42 -43 44 -45 0
-9 -13 33 42 -43 44 45 0
-9 -13 -33 -41 42 -43 -44 45 0
-21 22 23 24 44 0
-9 -13 -33 -41 -42 -43 -44 -45 0
9 -13 33 -42 43 -44 45 0
-9 -13 41 42 -43 -44 -45 0
9 13 87 -123 0
9 13 -33 -41 -42 -43 44 45 0
-9 13 -33 -41 42 43 44 -45 0
41 88 -124 0
9 -13 41 42 43 44 45 0
11 -15 -35 -41 -43 63 -66 -67 0
-11 -15 35 43 -63 66 67 0
12 16 -36 -41 44 -64 -68 69 0
-12 16 -36 -41 44 -64 68 69 0
-12 -16 36 -44 -64 68 -69 0
-10 -14 34 -62 63 64 65 0
41 63 64 97 -133 0
-29 30 31 32 64 0
-10 -14 41 -62 -63 64 -65 0
-10 -14 41 -62 63 -64 -65 0
-10 -14 41 -62 -63 -64 65 0
-10 -14 -34 -41 62 -63 64 -65 0
-10 -14 -34 -41 62 63 -64 -65 0
-10 -14 -34 -41 62 -63 -64 65 0
12 -16 -36 -41 44 64 -68 69 0
41 92 -128 0
12 -16 41 44 64 68 69 0
-10 -14 -34 -41 -62 -63 -64 -65 0
-10 -14 41 62 63 -64 65 0
10 -14 -34 -41 -62 63 64 65 0
10 14 41 -62 63 64 65 0
11 15 -35 -41 43 -63 -66 67 0
-11 15 -35 -41 43 -63 66 67 0
-11 15 35 -43 63 66 -67 0
-11 -15 35 43 63 66 -67 0
-11 -15 35 -43 -63 -66 67 0
-11 -15 35 -43 63 66 67 0
41 63 -64 -97 -133 0
10 -14 -34 -41 -62 -63 64 -65 0
-25 26 27 28 63 0
-10 -14 34 62 63 -64 65 0
10 -14 -34 -41 -62 63 -64 -65 0
-10 -14 34 -62 -63 64 -65 0
-10 -14 34 62 -63 -64 -65 0
-10 -14 34 -62 63 -64 -65 0
41 43 -63 -95 -131 0
35 43 63 95 -131 0
35 43 -63 -95 -131 0
11 -15 41 -43 63 -66 67 0
-11 15 -35 -41 -43 63 66 67 0
41 49 50 -56 -60 -115 0
41 -49 51 -56 -60 115 0
41 49 50 56 -60 115 0
41 -49 51 56 -60 -115 0
10 14 -34 -41 -62 63 -64 65 0
-10 14 -34 -41 62 63 -64 65 0
-10 14 34 62 -63 64 -65 0
-10 -14 34 62 63 64 -65 0
-10 -14 34 -62 -63 -64 65 0
-10 -14 34 62 -63 64 65 0
-10 -14 41 62 -63 64 65 0
34 63 64 97 -133 0
34 63 -64 -97 -133 0
10 -14 41 -62 -63 64 65 0
-10 14 -34 -41 62 -63 64 65 0
-80 -83 -119 0
-45 -53 57 59 -61 65 67 69 71 0
-46 47 -48 -49 51 114 0
-40 -41 -49 51 -56 60 115 0
-81 -83 -118 0
46 -47 -48 -49 51 114 0
-40 -41 49 -52 -56 60 61 0
41 49 -52 56 60 61 0
46 47 48 49 51 -114 0
-46 -47 48 49 51 -114 0
-67 -69 -72 0
-65 -67 -72 0
-12 -16 41 -44 -64 68 -69 0
-12 -16 -36 -41 44 -64 68 -69 0
-12 16 41 44 64 68 69 0
-12 16 41 -44 64 68 -69 0
-12 16 41 44 -64 -68 69 0
-12 16 36 -44 -64 -68 -69 0
12 16 41 -44 64 -68 -69 0
12 16 36 44 -64 -68 -69 0
12 16 36 44 64 68 -69 0
12 16 36 -44 64 68 69 0
41 -43 -63 95 -131 0
-11 -15 -35 -41 43 -63 66 -67 0
-11 -15 66 94 -130 0
11 15 -66 -94 -130 0
-11 -15 41 43 63 66 -67 0
-11 15 41 -43 -63 66 67 0
-11 15 35 43 63 66 67 0
-11 15 35 -43 -63 -66 -67 0
-11 15 -35 -41 43 63 -66 67 0
-57 -59 -74 0
-45 -53 57 59 61 65 67 -69 75 0
-59 -61 -75 0
11 15 35 43 -63 -66 -67 0
10 -14 62 -96 -132 0
11 15 -35 -41 43 63 66 67 0
-10 14 -62 96 -132 0
-10 14 41 62 63 -64 -65 0
-10 14 41 -62 -63 64 65 0
-10 14 34 -62 63 -64 65 0
10 14 -34 -41 62 -63 -64 65 0
-10 -14 -62 -96 -132 0
41 49 51 -56 60 115 0
59 -78 -120 0
41 -49 51 -56 60 -115 0
-27 31 39 48 55 58 59 0
46 -47 48 -49 -52 53 0
-27 31 39 48 -55 -58 59 0
-27 31 -39 -41 -48 -55 -58 59 0
27 31 -39 -41 48 55 58 59 0
-27 31 41 48 -55 -58 59 0
27 31 -39 -41 -48 55 58 -59 0
53 80 -81 -82 83 -84 -114 -120 0
26 30 -38 -41 54 -55 56 -57 0
27 31 39 48 55 58 -59 0
26 30 41 -54 -55 56 -57 0
61 80 -81 -82 83 -84 -115 -120 0
26 30 41 54 -55 -56 -57 0
26 30 38 54 55 56 -57 0
46 47 -48 49 52 53 0
41 49 52 -56 60 61 0
46 -47 48 49 52 53 0
9 13 41 42 43 44 -45 0
61 80 -81 82 -83 -84 -115 -120 0
-1 -85 -121 0
1 85 -121 0
-5 -86 -122 0
5 86 -122 0
9 -13 -33 -41 42 -43 -44 -45 0
9 -13 -33 -41 42 43 -44 45 0
-9 -13 -33 -41 -42 43 44 -45 0
-9 -13 33 -42 -43 44 -45 0
9 -13 33 42 -43 -44 45 0
-33 -41 -88 -124 0
9 -13 41 42 -43 -44 45 0
-9 -13 41 -42 43 44 45 0
9 -13 41 -42 43 -44 45 0
-9 13 -33 -41 42 -43 44 45 0
9 -13 41 -42 43 44 -45 0
-68 -90 -126 0
68 90 -126 0
12 -16 -36 -41 -44 -64 68 -69 0
12 -16 -36 -41 44 -64 68 69 0
-12 -16 -36 -41 44 64 -68 -69 0
-12 -16 36 -44 64 -68 -69 0
12 -16 36 -44 -64 68 69 0
-36 -41 -92 -128 0
12 -16 41 -44 -64 68 69 0
-12 -16 41 44 64 -68 69 0
12 -16 41 44 -64 -68 69 0
-12 16 -36 -41 -44 64 68 69 0
12 -16 41 44 64 -68 -69 0
11 -15 35 43 -63 66 -67 0
11 -15 35 -43 63 66 -67 0
11 -15 35 43 63 -66 -67 0
11 -15 35 -43 -63 -66 -67 0
11 -15 41 -43 63 66 -67 0
11 -15 41 43 -63 -66 67 0
11 -15 41 43 63 66 67 0
10 -14 34 62 63 -64 -65 0
10 -14 34 62 -63 64 -65 0
10 -14 34 -62 63 64 -65 0
10 -14 34 -62 -63 -64 -65 0
10 -14 41 62 -63 64 -65 0
10 -14 41 -62 63 -64 65 0
10 -14 41 62 63 64 65 0
-98 114 -134 0
98 -114 -134 0
57 59 -99 -100 101 -103 104 -105 107 -108 -109 -111 -112 -113 115 120 121 122 123 124 125 126 127 128 129 130 131 132 133 134 135 136 137 0
-61 -77 -82 -120 0
-57 -59 99 100 -101 103 -104 105 -107 108 109 111 112 113 -115 120 121 122 123 124 125 126 127 128 129 130 131 132 133 134 135 136 137 0
-57 -59 99 100 101 103 -104 -105 -107 108 -109 111 112 -113 115 120 121 122 123 124 125 126 127 128 129 130 131 132 133 134 135 136 137 0
57 59 -99 -100 -101 -103 104 105 107 -108 109 -111 -112 113 -115 120 121 122 123 124 125 126 127 128 129 130 131 132 133 134 135 136 137 0
-53 -77 83 -120 0
-102 114 -135 0
102 -114 -135 0
-59 -77 -82 -120 0
-59 -76 -83 -120 0
-57 59 99 -100 -101 103 104 105 -107 -108 109 111 -112 113 -115 120 121 122 123 124 125 126 127 128 129 130 131 132 133 134 135 136 137 0
-61 -76 82 -120 0
-57 59 99 -100 101 103 104 -105 -107 -108 -109 111 -112 -113 115 120 121 122 123 124 125 126 127 128 129 130 131 132 133 134 135 136 137 0
-61 -77 84 -120 0
-106 114 -136 0
106 -114 -136 0
57 -59 -99 100 -101 -103 -104 105 107 108 109 -111 112 113 -115 120 121 122 123 124 125 126 127 128 129 130 131 132 133 134 135 136 137 0
-53 -77 84 -120 0
57 -59 -99 100 101 -103 -104 -105 107 108 -109 -111 112 -113 115 120 121 122 123 124 125 126 127 128 129 130 131 132 133 134 135 136 137 0
-61 -77 83 -120 0
-57 -77 83 -120 0
-61 -76 -83 -120 0
-110 -114 -137 0
110 114 -137 0
-59 -77 83 -120 0
-53 -76 84 -120 0
-57 -77 84 -120 0
-59 -76 84 -120 0
-57 -76 -83 -120 0
-59 -77 84 -120 0
-57 -76 82 -120 0
-53 -76 -83 -120 0
